NAME : OMNETRUN
COMMENT : 524.61
TYPE : CVRP
DIMENSION : 21
EDGE_WEIGHT_TYPE : EUC_2D
CAPACITY : 21
NODE_COORD_SECTION
1 0.107093 -0.77924
2 32.5573 -171.919
3 123.863 -640.48
4 149.591 -1296.12
5 250.247 -1658.87
6 138.36 -2145.2
7 246.919 -2703.71
8 168.169 -3195.47
9 5.03551 -3802.51
10 219.865 -4991.81
11 489.517 -654.859
12 490.661 -3631.64
13 403.355 -3992.23
14 326.581 -5621.14
15 525.92 -56.2934
16 676.909 -966.457
17 642.649 -1571.48
18 561.872 -1970.27
19 672.133 -2947.28
20 559.551 -4357.84
21 692.923 -5027.54
DEMAND_SECTION
1 0
2 1
3 1
4 1
5 1
6 1
7 1
8 1
9 1
10 1
11 1
12 1
13 1
14 1
15 1
16 1
17 1
18 1
19 1
20 1
21 1
DEPOT_SECTION
1
-1
EOF
